p cnf 47 2
-11 -29 -24 -46 -28 -19 -42 -9 2 4 8 9 10 11 14 16 18 19 20 24 28 29 32 36 38 42 46 0
-12 -11 -13 -45 -25 -22 -27 -35 -32 -2 -46 -21 -44 -38 -36 -17 -40 -7 -5 -39 -41 -26 -6 -42 -23 -37 -18 -9 -19 -15 -8 -28 -4 -30 -24 -47 1 2 3 4 5 6 7 8 9 10 11 12 13 14 15 16 17 18 19 20 21 22 23 24 25 26 27 28 29 30 31 32 33 35 36 37 38 39 40 41 42 43 44 45 46 47 0
